%pal
  nprocs 8
end

%maxcore 350

! PBE def2-SVP 
! RIJCOSX def2/J
! NORMALOPT Freq

* xyzfile 0 1 acetaldehyde.xyz
