!PBE def2-SVP RIJCOSX def2/J TightOPT NearIR NumFreq

%elprop
	Polar 1
end

%pal
	nprocs 4
end

%maxcore 350

*xyzfile 0 1 CO2.xyz


