! PBE def2-SVP RIJCOSX def2/J

%pal
	nprocs 64
end

%scf
	maxiter 10
end

%maxcore 1000

*xyz 3 7
  Eu  1.11133782902839      0.65298531423991      0.00144779052498
  O   0.80239810008394      2.34144315708459      1.82903891423991
  H   0.85726757717923      2.23442557485929      2.80541292955011
  O   -1.23599409661457      0.38706577629769      0.91149320841225
  H   -1.58710302929026     -0.18093454518579      1.63354696586046
  O   1.34657214442154     -1.28001568598977      1.57941403675465
  H   1.79298507574141     -2.14910263669633      1.45616017249156
  O   3.41193346002209      0.77924503904179      1.06298714063718
  H   4.27407198622840      0.40286029786841      0.77767233735901
  O   -0.19675954611891     -1.16837883163787     -1.14870094735030
  H   -0.79174852464664     -1.13749696103643     -1.93048418862566
  O   2.47591316444446      2.61696610301495     -0.81771375102364
  H   3.10756795185712      2.69686315117044     -1.56925490281768
  H   -0.29455176116811     -2.12450365352777     -0.93690195976646
  H   -2.08714737746423      0.79912560794380      0.63668250253714
  H   0.36102417006829      3.21949903552804      1.81121519383610
  H   2.54855652499673      3.53589541651993     -0.47414912298276
  H   3.72494660279420      1.23659460812725      1.87642971036114
  H   1.24696388526443     -1.31264551344469      2.55766310355838
  O   -0.27903613259108      1.92068235946058     -1.64669265910161
  H   -0.81247835174497      2.73922907985361     -1.52888364543272
  O   2.58980257050086     -0.36398378383233     -1.74403155164015
  H   2.61926751524132     -0.20681362264732     -2.71446367617249
  H   -0.25808402864775      1.90554244729059     -2.62959766223440
  H   3.12096429041404     -1.19035773430262     -1.71995993897500
*

