%pal
  nprocs 4
end

%maxcore 750

! PBE def2-SVP D3BJ
! NEB-TS

%neb
  product "NEB_product.xyz"
  ts "NEB_ts_guess.xyz"
  nimages 5
end

* xyzfile 0 1 NEB_reactant.xyz
