%pal
  nprocs 4
end

%maxcore 350

! DLPNO-CCSD def2-SVP
! RIJCOSX AutoAux

* xyzfile 1 2 water.xyz
