%pal
  nprocs 4
end

%maxcore 350

! PBE def2-SVP 
! RIJCOSX def2/J

* xyzfile 0 1 water.xyz
