%pal
  nprocs 4
end

%maxcore 350

! PBE def2-SVP 
! RIJCOSX def2/J

%CPCM
  SMD True
  SMDsolvent "water"
end

* xyzfile 0 1 water.xyz
