%pal
  nprocs 4
end

%maxcore 350

! PBE def2-SVP 
! RIJCOSX def2/J

%CPCM
  SMD True
  SMDsolvent "DMSO"
end

* xyzfile 1 2 water.xyz
