%pal
  nprocs 4
end

%maxcore 350

! PBE def2-SVP 
! RIJCOSX def2/J
! NumFreq

%CPCM
  SMD True
  SMDsolvent "ethanol"
end

* xyzfile 0 1 water.xyz
