Geometry = GenFormat {
3 C
  O H

  1 1  0.00000000000E+00 -0.10000000000E+01  0.00000000000E+00
  2 2  0.00000000000E+00  0.00000000000E+00  0.78306400000E+00
  3 2  0.00000000000E+00  0.00000000000E+00 -0.78306400000E+00
}

Driver = ConjugateGradient {
  MovedAtoms = 1:-1
}

Hamiltonian = DFTB {
  Scc = Yes
  ThirdOrderFull = Yes
  HCorrection = Damping {
    Exponent = 4.00 
  }
  SlaterKosterFiles {
    O-O = "../3ob-3-1/O-O.skf"
    O-H = "../3ob-3-1/O-H.skf"
    H-O = "../3ob-3-1/H-O.skf"
    H-H = "../3ob-3-1/H-H.skf"
  }
  HubbardDerivs {
    H	= -0.1857
    O = -0.1575
  }
  MaxAngularMomentum {
    O = "p"
    H = "s"
  }
}

ParserOptions {
  ParserVersion = 11
}